20 64 
1 5 1
1 6 1
1 7 1
1 8 1
1 9 1
1 13 1
1 18 1
1 19 1
2 5 1
2 11 1
2 12 1
2 14 1
3 5 1
3 6 1
3 7 1
3 11 1
3 13 1
3 15 1
3 16 1
3 19 1
4 5 1
4 6 1
4 7 1
4 10 1
4 14 1
4 16 1
4 17 1
4 20 1
5 6 1
5 7 1
5 8 1
5 12 1
5 13 1
5 18 1
6 8 1
6 9 1
6 10 1
6 11 1
6 12 1
6 15 1
6 16 1
7 8 1
7 9 1
7 10 1
7 12 1
7 17 1
7 18 1
8 9 1
8 17 1
9 10 1
9 11 1
9 13 1
9 17 1
9 20 1
10 19 1
11 16 1
12 14 1
12 15 1
13 14 1
14 15 1
15 20 1
17 18 1
17 20 1
18 19 1
